33D32945 STP File, STP Format Version 1.0

SECTION Comments
Name "shell_n13_d3_s40"
Problem "Euclidean Steiner Tree Problem"
Remark "Generated with STPGenerator. 3 dimensions."
END

SECTION Graph
Nodes 13
END

SECTION Coordinates
DDD 0 0.6320494189 -0.3515642481 0.6905911320
DDD 1 0.9149045258 -0.3800498099 -0.1360582619
DDD 2 -0.5569487351 0.8236533179 0.1067863206
DDD 3 0.5146083353 0.4392807842 -0.7363495460
DDD 4 -0.9903873385 -0.1268998016 -0.0550396234
DDD 5 0.2070321180 -0.9775768572 -0.0384862374
DDD 6 0.5835647021 -0.3142912306 -0.7487811836
DDD 7 -0.2508141968 0.6958789101 0.6729374274
DDD 8 0.9055384688 0.2568120549 -0.3377094166
DDD 9 0.4209085357 0.2778847707 0.8634906246
DDD 10 0.0363592733 -0.1065398308 -0.9936434309
DDD 11 -0.8099332908 -0.0972143317 0.5784094036
DDD 12 -0.3892423183 0.1513623434 0.9086142518
END
